p cnf 8 27
-8 8 -3 0
8 -7 -1 7 0
1 -5 -3 0
1 2 -4 -1 0
1 -5 -4 -7 0
-8 1 -1 6 0
7 0
5 4 -3 -2 0
1 4 -4 -7 0
-7 7 1 -2 0
3 -5 5 -2 0
3 7 0
-7 2 -4 5 0
7 -1 6 0
1 0
-8 8 -3 -2 0
8 4 5 0
-7 2 4 0
-8 -3 0
-8 0
1 -2 0
-6 6 0
-5 5 0
5 -6 -3 0
2 -3 0
8 -7 3 0
-6 -1 0
